language ESSENCE' 1.0

letting size = 8
letting crows =  [10,0,16,16,8,5,20,4]
letting ccols =  [7,12,6,17,13,6,10,1]

$ letting size = 7
$ letting crows =  [4,14,2,6,6,3,15]
$ letting ccols =  [4,5,3,11,0,14,13]
